c CNF file corresponding to a (partial) station packing problem.
p cnf 2648 229
1 2 3 4 5 6 7 8 9 10 11 12 13 14 0
-1 -2 0
-1 -3 0
-1 -4 0
-1 -5 0
-1 -6 0
-1 -7 0
-1 -8 0
-1 -9 0
-1 -10 0
-1 -11 0
-1 -12 0
-1 -13 0
-1 -14 0
-2 -3 0
-2 -4 0
-2 -5 0
-2 -6 0
-2 -7 0
-2 -8 0
-2 -9 0
-2 -10 0
-2 -11 0
-2 -12 0
-2 -13 0
-2 -14 0
-3 -4 0
-3 -5 0
-3 -6 0
-3 -7 0
-3 -8 0
-3 -9 0
-3 -10 0
-3 -11 0
-3 -12 0
-3 -13 0
-3 -14 0
-4 -5 0
-4 -6 0
-4 -7 0
-4 -8 0
-4 -9 0
-4 -10 0
-4 -11 0
-4 -12 0
-4 -13 0
-4 -14 0
-5 -6 0
-5 -7 0
-5 -8 0
-5 -9 0
-5 -10 0
-5 -11 0
-5 -12 0
-5 -13 0
-5 -14 0
-6 -7 0
-6 -8 0
-6 -9 0
-6 -10 0
-6 -11 0
-6 -12 0
-6 -13 0
-6 -14 0
-7 -8 0
-7 -9 0
-7 -10 0
-7 -11 0
-7 -12 0
-7 -13 0
-7 -14 0
-8 -9 0
-8 -10 0
-8 -11 0
-8 -12 0
-8 -13 0
-8 -14 0
-9 -10 0
-9 -11 0
-9 -12 0
-9 -13 0
-9 -14 0
-10 -11 0
-10 -12 0
-10 -13 0
-10 -14 0
-11 -12 0
-11 -13 0
-11 -14 0
-12 -13 0
-12 -14 0
-13 -14 0
2632 2633 2634 2635 2636 2637 2638 2639 2640 2641 2642 2643 2644 2645 2646 2647 2648 0
-2632 -2633 0
-2632 -2634 0
-2632 -2635 0
-2632 -2636 0
-2632 -2637 0
-2632 -2638 0
-2632 -2639 0
-2632 -2640 0
-2632 -2641 0
-2632 -2642 0
-2632 -2643 0
-2632 -2644 0
-2632 -2645 0
-2632 -2646 0
-2632 -2647 0
-2632 -2648 0
-2633 -2634 0
-2633 -2635 0
-2633 -2636 0
-2633 -2637 0
-2633 -2638 0
-2633 -2639 0
-2633 -2640 0
-2633 -2641 0
-2633 -2642 0
-2633 -2643 0
-2633 -2644 0
-2633 -2645 0
-2633 -2646 0
-2633 -2647 0
-2633 -2648 0
-2634 -2635 0
-2634 -2636 0
-2634 -2637 0
-2634 -2638 0
-2634 -2639 0
-2634 -2640 0
-2634 -2641 0
-2634 -2642 0
-2634 -2643 0
-2634 -2644 0
-2634 -2645 0
-2634 -2646 0
-2634 -2647 0
-2634 -2648 0
-2635 -2636 0
-2635 -2637 0
-2635 -2638 0
-2635 -2639 0
-2635 -2640 0
-2635 -2641 0
-2635 -2642 0
-2635 -2643 0
-2635 -2644 0
-2635 -2645 0
-2635 -2646 0
-2635 -2647 0
-2635 -2648 0
-2636 -2637 0
-2636 -2638 0
-2636 -2639 0
-2636 -2640 0
-2636 -2641 0
-2636 -2642 0
-2636 -2643 0
-2636 -2644 0
-2636 -2645 0
-2636 -2646 0
-2636 -2647 0
-2636 -2648 0
-2637 -2638 0
-2637 -2639 0
-2637 -2640 0
-2637 -2641 0
-2637 -2642 0
-2637 -2643 0
-2637 -2644 0
-2637 -2645 0
-2637 -2646 0
-2637 -2647 0
-2637 -2648 0
-2638 -2639 0
-2638 -2640 0
-2638 -2641 0
-2638 -2642 0
-2638 -2643 0
-2638 -2644 0
-2638 -2645 0
-2638 -2646 0
-2638 -2647 0
-2638 -2648 0
-2639 -2640 0
-2639 -2641 0
-2639 -2642 0
-2639 -2643 0
-2639 -2644 0
-2639 -2645 0
-2639 -2646 0
-2639 -2647 0
-2639 -2648 0
-2640 -2641 0
-2640 -2642 0
-2640 -2643 0
-2640 -2644 0
-2640 -2645 0
-2640 -2646 0
-2640 -2647 0
-2640 -2648 0
-2641 -2642 0
-2641 -2643 0
-2641 -2644 0
-2641 -2645 0
-2641 -2646 0
-2641 -2647 0
-2641 -2648 0
-2642 -2643 0
-2642 -2644 0
-2642 -2645 0
-2642 -2646 0
-2642 -2647 0
-2642 -2648 0
-2643 -2644 0
-2643 -2645 0
-2643 -2646 0
-2643 -2647 0
-2643 -2648 0
-2644 -2645 0
-2644 -2646 0
-2644 -2647 0
-2644 -2648 0
-2645 -2646 0
-2645 -2647 0
-2645 -2648 0
-2646 -2647 0
-2646 -2648 0
-2647 -2648 0
